CPXPARAM_Read_DataCheck                          1
Found incumbent of value 0.000000 after 0.00 sec. (3.82 ticks)
Tried aggregator 1 time.
MIP Presolve eliminated 4 rows and 0 columns.
MIP Presolve modified 1 coefficients.
Reduced MIP has 10045 rows, 150015 columns, and 710051 nonzeros.
Reduced MIP has 150015 binaries, 0 generals, 0 SOSs, and 0 indicators.
Presolve time = 0.52 sec. (273.89 ticks)
Tried aggregator 1 time.
Reduced MIP has 10045 rows, 150015 columns, and 710051 nonzeros.
Reduced MIP has 150015 binaries, 0 generals, 0 SOSs, and 0 indicators.
Presolve time = 0.69 sec. (307.97 ticks)
Probing time = 0.48 sec. (69.52 ticks)
Clique table members: 505091.
MIP emphasis: balance optimality and feasibility.
MIP search method: dynamic search.
Parallel mode: deterministic, using up to 4 threads.
Root relaxation solution time = 2.86 sec. (1529.30 ticks)

        Nodes                                         Cuts/
   Node  Left     Objective  IInf  Best Integer    Best Bound    ItCnt     Gap

*     0+    0                            0.0000   929858.0000              --- 
      0     0   529572.0286    15        0.0000   529572.0286       19     --- 
*     0+    0                       329864.0000   529572.0286            60.54%
      0     0   529509.4429    15   329864.0000 Cliques: 2611       48   23.88%
      0     0   471845.7153   322   329864.0000    Cuts: 2611    21296   12.58%
      0     0        cutoff         329864.0000   329864.0000    21334    0.00%
Elapsed time = 490.58 sec. (177725.16 ticks, tree = 0.01 MB, solutions = 2)

Clique cuts applied:  5161
Mixed integer rounding cuts applied:  8

Root node processing (before b&c):
  Real time             =  490.64 sec. (177734.86 ticks)
Parallel b&c, 4 threads:
  Real time             =    0.00 sec. (0.00 ticks)
  Sync time (average)   =    0.00 sec.
  Wait time (average)   =    0.00 sec.
                          ------------
Total (root+branch&cut) =  490.64 sec. (177734.86 ticks)
